Problem:    
Rows:       248
Columns:    89 (72 integer, 72 binary)
Non-zeros:  820
Status:     INTEGER OPTIMAL
Objective:  value = 101.98595 (MINimum)

   No.   Row name        Activity     Lower bound   Upper bound
------ ------------    ------------- ------------- -------------
     1 r.5                   2101.99             0               
     2 r.6                  -1950.61      -1984.23               
     3 r.7                   101.986             0               
     4 r.8                  -3.66159      -1986.39               
     5 r.9                   101.986             0               
     6 r.10                 -1845.13      -1982.67               
     7 r.11                  2101.99             0               
     8 r.12                 -1985.43      -1986.62               
     9 r.13                  101.986             0               
    10 r.14                  36.1133      -1972.32               
    11 r.15                  2101.99             0               
    12 r.16                 -1951.54      -1981.45               
    13 r.17                  2101.99             0               
    14 r.18                 -1975.31      -1985.09               
    15 r.19                  101.986             0               
    16 r.20                  1.18311      -1990.16               
    17 r.21                  101.986             0               
    18 r.22                  5.93386      -1986.29               
    19 r.23                  2101.99             0               
    20 r.24                 -1970.09      -1989.66               
    21 r.25                  101.986             0               
    22 r.26                 -1864.96      -1966.95               
    23 r.27                  2101.99             0               
    24 r.28                 -1898.01      -1980.41               
    25 r.29                  2101.99             0               
    26 r.30                 -1898.01      -1966.73               
    27 r.31                  101.986             0               
    28 r.32                 -22.2708       -1980.4               
    29 r.33                  2101.99             0               
    30 r.34                 -1998.82      -1998.82               
    31 r.35                  101.986             0               
    32 r.36                 -1991.96      -1991.96               
    33 r.37                        1             1             = 
    34 r.38                        1             1             = 
    35 r.39                        1             1             = 
    36 r.40                        1             1             = 
    37 r.41                        1             1             = 
    38 r.42                        1             1             = 
    39 r.43                        1             1             = 
    40 r.44                        1             1             = 
    41 r.45                   102.98       17.3301               
    42 r.46                  -100.48      -1984.23               
    43 r.47                  23.2267        13.382               
    44 r.48                 -28.2267      -1986.39               
    45 r.49                  1984.23       27.6794               
    46 r.50                 -1981.73      -1984.23               
    47 r.51                  57.1196       18.5483               
    48 r.52                 -62.1196      -1986.39               
    49 r.53                   1972.8       14.9061               
    50 r.54                  -1972.8      -1984.23               
    51 r.55                   9.8447        9.8447               
    52 r.56                  -9.8447      -1986.39               
    53 r.57                  1954.05        13.712               
    54 r.58                 -1954.05      -1984.23               
    55 r.59                  38.5713       10.3446               
    56 r.60                 -38.5713      -1986.39               
    57 r.61                 -1916.85      -1951.69               
    58 r.62                  -1949.9       -1949.9               
    59 r.63                  -1856.3      -1951.69               
    60 r.64                 -1889.35       -1949.9               
    61 r.65                  50.0977       33.2743               
    62 r.66                 -50.0977      -1984.23               
    63 r.67                  1986.39        19.599               
    64 r.68                 -1986.39      -1986.39               
    65 r.69                 -1949.29      -1981.73               
    66 r.70                  -9.8447      -1981.39               
    67 r.71                   43.851      -1981.73               
    68 r.72                   1983.3      -1981.39               
    69 r.73                  1897.02        15.775               
    70 r.74                 -1899.52      -1982.67               
    71 r.75                  1976.77       13.6092               
    72 r.76                 -1971.77      -1986.62               
    73 r.77                  1883.75       27.6794               
    74 r.78                 -1881.25      -1982.67               
    75 r.79                  28.8929       18.5483               
    76 r.80                 -33.8929      -1986.62               
    77 r.81                  1872.32       14.9061               
    78 r.82                 -1872.32      -1982.67               
    79 r.83                  1981.62        9.8447               
    80 r.84                 -1981.62      -1986.62               
    81 r.85                  1853.57        13.712               
    82 r.86                 -1853.57      -1982.67               
    83 r.87                  10.3446       10.3446               
    84 r.88                 -10.3446      -1986.62               
    85 r.89                  1982.67       33.0518               
    86 r.90                 -1982.67      -1982.67               
    87 r.91                  82.4208       19.5906               
    88 r.92                 -82.4208      -1986.62               
    89 r.93                 -50.3819      -1951.47               
    90 r.94                  1825.36      -1949.89               
    91 r.95                 -1917.58      -1951.47               
    92 r.96                 -41.8359      -1949.89               
    93 r.97                 -1848.82      -1980.17               
    94 r.98                 -1981.62      -1981.62               
    95 r.99                  144.331      -1980.17               
    96 r.100                 11.5279      -1981.62               
    97 r.101                  15.775        15.775               
    98 r.102                 -18.275      -1972.32               
    99 r.103                 1942.88       13.6092               
   100 r.104                -1937.88      -1981.45               
   101 r.105                 121.255       17.3301               
   102 r.106                -118.755      -1972.32               
   103 r.107                 1961.11        13.382               
   104 r.108                -1966.11      -1981.45               
   105 r.109                 8.92267      -1969.82               
   106 r.110                -1971.23      -1976.45               
   107 r.111                 32.4301      -1969.82               
   108 r.112                -1947.73      -1976.45               
   109 r.113                 1972.32        13.712               
   110 r.114                -1972.32      -1972.32               
   111 r.115                 1976.45       10.3446               
   112 r.116                -1976.45      -1981.45               
   113 r.117                 101.424       33.0518               
   114 r.118                -101.424      -1972.32               
   115 r.119                 48.5279       19.5906               
   116 r.120                -48.5279      -1981.45               
   117 r.121                -1931.63      -1951.47               
   118 r.122                 -55.884      -1949.89               
   119 r.123                -1951.47      -1951.47               
   120 r.124                -75.7288      -1949.89               
   121 r.125                 32.4301      -1969.82               
   122 r.126                -1947.73      -1976.45               
   123 r.127                 2025.58      -1969.82               
   124 r.128                 45.4208      -1976.45               
   125 r.129                 24.6977        15.775               
   126 r.130                -27.1977      -1985.09               
   127 r.131                 1995.16       13.6092               
   128 r.132                -1990.16      -1990.16               
   129 r.133                 130.177       17.3301               
   130 r.134                -127.677      -1985.09               
   131 r.135                  13.382        13.382               
   132 r.136                 -18.382      -1990.16               
   133 r.137                 8.92267      -1969.82               
   134 r.138                -1971.23      -1976.45               
   135 r.139                 32.4301      -1969.82               
   136 r.140                -1947.73      -1976.45               
   137 r.141                 1981.24        13.712               
   138 r.142                -1981.24      -1985.09               
   139 r.143                 28.7266       10.3446               
   140 r.144                -28.7266      -1990.16               
   141 r.145                 110.347       33.0518               
   142 r.146                -110.347      -1985.09               
   143 r.147                 100.803       19.5906               
   144 r.148                -100.803      -1990.16               
   145 r.149                 -1922.7      -1951.47               
   146 r.150                -46.9614      -1949.89               
   147 r.151                 -1899.2      -1951.47               
   148 r.152                -23.4539      -1949.89               
   149 r.153                -1976.49      -1976.49               
   150 r.154                       0      -1972.95               
   151 r.155                 16.6534      -1976.49               
   152 r.156                 1993.15      -1972.95               
   153 r.157                 43.4544        15.775               
   154 r.158                -45.9544      -1986.29               
   155 r.159                 1966.43       13.6092               
   156 r.160                -1961.43      -1989.66               
   157 r.161                 148.934       17.3301               
   158 r.162                -146.434      -1986.29               
   159 r.163                 1984.66        13.382               
   160 r.164                -1989.66      -1989.66               
   161 r.165                 30.1794       27.6794               
   162 r.166                -27.6794      -1986.29               
   163 r.167                 18.5483       18.5483               
   164 r.168                -23.5483      -1989.66               
   165 r.169                 18.7567       14.9061               
   166 r.170                -18.7567      -1986.29               
   167 r.171                 1971.27        9.8447               
   168 r.172                -1971.27      -1989.66               
   169 r.173                 -1870.9      -1951.69               
   170 r.174                -1903.95       -1949.9               
   171 r.175                -1894.87      -1951.69               
   172 r.176                -1927.92       -1949.9               
   173 r.177                -1903.95      -1951.47               
   174 r.178                -28.2046      -1949.89               
   175 r.179                -1927.92      -1951.47               
   176 r.180                -52.1805      -1949.89               
   177 r.181                 4.75074      -1981.29               
   178 r.182                -1971.27      -1979.66               
   179 r.183                  1997.9      -1981.29               
   180 r.184                 21.8726      -1979.66               
   181 r.185                -1916.85      -1951.69               
   182 r.186                 -1949.9       -1949.9               
   183 r.187                 -1856.3      -1951.69               
   184 r.188                -1889.35       -1949.9               
   185 r.189                 19.8301       17.3301               
   186 r.190                -17.3301      -1966.95               
   187 r.191                 1912.58        13.382               
   188 r.192                -1917.58      -1980.41               
   189 r.193                 1901.08       27.6794               
   190 r.194                -1898.58      -1966.95               
   191 r.195                 1946.47       18.5483               
   192 r.196                -1951.47      -1980.41               
   193 r.197                 1889.65       14.9061               
   194 r.198                -1889.65      -1966.95               
   195 r.199                  1899.2        9.8447               
   196 r.200                 -1899.2      -1980.41               
   197 r.201                 -1870.9      -1951.69               
   198 r.202                -1903.95       -1949.9               
   199 r.203                -1894.87      -1951.69               
   200 r.204                -1927.92       -1949.9               
   201 r.205                 1966.95       33.2743               
   202 r.206                -1966.95      -1966.95               
   203 r.207                 1875.74        19.599               
   204 r.208                -1875.74      -1980.41               
   205 r.209                  1947.4        15.775               
   206 r.210                 -1949.9      -1966.73               
   207 r.211                 18.6092       13.6092               
   208 r.212                -13.6092       -1980.4               
   209 r.213                -50.3819      -1951.47               
   210 r.214                 1825.36      -1949.89               
   211 r.215                -1917.58      -1951.47               
   212 r.216                -41.8359      -1949.89               
   213 r.217                -1931.63      -1951.47               
   214 r.218                 -55.884      -1949.89               
   215 r.219                -1951.47      -1951.47               
   216 r.220                -75.7288      -1949.89               
   217 r.221                 -1922.7      -1951.47               
   218 r.222                -46.9614      -1949.89               
   219 r.223                 -1899.2      -1951.47               
   220 r.224                -23.4539      -1949.89               
   221 r.225                -1903.95      -1951.47               
   222 r.226                -28.2046      -1949.89               
   223 r.227                -1927.92      -1951.47               
   224 r.228                -52.1805      -1949.89               
   225 r.229                 33.0518       33.0518               
   226 r.230                -33.0518      -1966.73               
   227 r.231                 124.257       19.5906               
   228 r.232                -124.257       -1980.4               
   229 r.233                -1949.29      -1981.73               
   230 r.234                 -9.8447      -1981.39               
   231 r.235                  43.851      -1981.73               
   232 r.236                  1983.3      -1981.39               
   233 r.237                -1848.82      -1980.17               
   234 r.238                -1981.62      -1981.62               
   235 r.239                 144.331      -1980.17               
   236 r.240                 11.5279      -1981.62               
   237 r.241                 32.4301      -1969.82               
   238 r.242                -1947.73      -1976.45               
   239 r.243                 2025.58      -1969.82               
   240 r.244                 45.4208      -1976.45               
   241 r.245                -1976.49      -1976.49               
   242 r.246                       0      -1972.95               
   243 r.247                 16.6534      -1976.49               
   244 r.248                 1993.15      -1972.95               
   245 r.249                 4.75074      -1981.29               
   246 r.250                -1971.27      -1979.66               
   247 r.251                  1997.9      -1981.29               
   248 r.252                 21.8726      -1979.66               

   No. Column name       Activity     Lower bound   Upper bound
------ ------------    ------------- ------------- -------------
     1 tt                    101.986             0               
     2 s_1_1        *              1             0             1 
     3 t_1_1                 50.0977             0               
     4 s_1_6        *              0             0             1 
     5 s_2_1        *              0             0             1 
     6 t_2_1                 110.648             0               
     7 s_2_6        *              1             0             1 
     8 s_1_2        *              0             0             1 
     9 t_1_2                 1949.62             0               
    10 s_1_7        *              1             0             1 
    11 s_2_2        *              1             0             1 
    12 t_2_2                 82.4208             0               
    13 s_2_7        *              0             0             1 
    14 s_1_3        *              0             0             1 
    15 t_1_3                 68.3727             0               
    16 s_2_3        *              1             0             1 
    17 t_2_3                 48.5279             0               
    18 s_1_4        *              1             0             1 
    19 t_1_4                 77.2954             0               
    20 s_2_4        *              0             0             1 
    21 t_2_4                 100.803             0               
    22 s_1_5        *              0             0             1 
    23 t_1_5                 96.0521             0               
    24 s_2_5        *              1             0             1 
    25 t_2_5                 72.0762             0               
    26 t_1_6                 1966.95             0               
    27 t_2_6                       0             0               
    28 t_1_7                       0             0               
    29 t_2_7                 124.257             0               
    30 s_1_8        *              1             0             1 
    31 t_1_8                 100.803             0               
    32 s_2_8        *              0             0             1 
    33 t_2_8                 2093.95             0               
    34 u_1_1_2      *              1             0             1 
    35 u_2_1_2      *              0             0             1 
    36 u_1_1_3      *              1             0             1 
    37 u_2_1_3      *              0             0             1 
    38 u_1_1_4      *              1             0             1 
    39 u_2_1_4      *              0             0             1 
    40 u_1_1_5      *              1             0             1 
    41 u_2_1_5      *              0             0             1 
    42 u_1_1_7      *              0             0             1 
    43 u_2_1_7      *              1             0             1 
    44 u_1_2_1      *              0             0             1 
    45 u_2_2_1      *              1             0             1 
    46 u_1_2_3      *              0             0             1 
    47 u_2_2_3      *              0             0             1 
    48 u_1_2_4      *              0             0             1 
    49 u_2_2_4      *              1             0             1 
    50 u_1_2_5      *              0             0             1 
    51 u_2_2_5      *              0             0             1 
    52 u_1_2_6      *              1             0             1 
    53 u_2_2_6      *              0             0             1 
    54 u_1_3_1      *              0             0             1 
    55 u_2_3_1      *              1             0             1 
    56 u_1_3_2      *              1             0             1 
    57 u_2_3_2      *              1             0             1 
    58 u_1_3_5      *              1             0             1 
    59 u_2_3_5      *              1             0             1 
    60 u_1_3_6      *              1             0             1 
    61 u_2_3_6      *              0             0             1 
    62 u_1_4_1      *              0             0             1 
    63 u_2_4_1      *              1             0             1 
    64 u_1_4_2      *              1             0             1 
    65 u_2_4_2      *              0             0             1 
    66 u_1_4_5      *              1             0             1 
    67 u_2_4_5      *              0             0             1 
    68 u_1_4_6      *              1             0             1 
    69 u_2_4_6      *              0             0             1 
    70 u_1_5_1      *              0             0             1 
    71 u_2_5_1      *              1             0             1 
    72 u_1_5_2      *              1             0             1 
    73 u_2_5_2      *              1             0             1 
    74 u_1_5_3      *              0             0             1 
    75 u_2_5_3      *              0             0             1 
    76 u_1_5_4      *              0             0             1 
    77 u_2_5_4      *              1             0             1 
    78 u_1_6_2      *              0             0             1 
    79 u_2_6_2      *              1             0             1 
    80 u_1_6_3      *              0             0             1 
    81 u_2_6_3      *              1             0             1 
    82 u_1_6_4      *              0             0             1 
    83 u_2_6_4      *              1             0             1 
    84 u_1_6_7      *              0             0             1 
    85 u_2_6_7      *              1             0             1 
    86 u_1_7_1      *              1             0             1 
    87 u_2_7_1      *              0             0             1 
    88 u_1_7_6      *              1             0             1 
    89 u_2_7_6      *              0             0             1 

Integer feasibility conditions:

KKT.PE: max.abs.err = 4.55e-13 on row 67
        max.rel.err = 1.09e-16 on row 67
        High quality

KKT.PB: max.abs.err = 2.27e-13 on row 94
        max.rel.err = 6.11e-15 on row 83
        High quality

End of output
